nbGenes = 10;
preference = [[0 80 18 28 84 71 27 37 82 71 ]
[20 0 48 73 14 60 11 37 68 38 ]
[82 52 0 62 76 47 74 3 10 31 ]
[72 27 38 0 23 12 16 69 6 98 ]
[16 86 24 77 0 78 66 80 79 60 ]
[29 40 53 88 22 0 92 82 74 50 ]
[73 89 26 84 34 8 0 32 91 50 ]
[63 63 97 31 20 18 68 0 66 98 ]
[18 32 90 94 21 26 9 34 0 59 ]
[29 62 69 2 40 50 50 2 41 0 ]
];
